
Welcome to IBM(R) ILOG(R) CPLEX(R) Interactive Optimizer 22.1.1.0
  with Simplex, Mixed Integer & Barrier Optimizers
5725-A06 5725-A29 5724-Y48 5724-Y49 5724-Y54 5724-Y55 5655-Y21
Copyright IBM Corp. 1988, 2022.  All Rights Reserved.

Type 'help' for a list of available commands.
Type 'help' followed by a command name for more
information on commands.

CPLEX> Selected objective sense:  MINIMIZE
Selected objective  name:  00000000
Selected RHS        name:  RHS1
Selected bound      name:  BOUND
Problem 'ee.mps' read.
Read time = 0.03 sec. (3.14 ticks)
CPLEX> New value for time limit in seconds: 7200
CPLEX> New value for parallel optimization mode: -1
CPLEX> New value for default parallel thread count: 40
CPLEX> New value for mixed integer optimality gap tolerance: 1e-13
CPLEX> Version identifier: 22.1.1.0 | 2022-11-28 | 9160aff4d
CPXPARAM_Threads                                 40
CPXPARAM_Parallel                                -1
CPXPARAM_TimeLimit                               7200
CPXPARAM_MIP_Tolerances_MIPGap                   1e-13
Found incumbent of value 0.000000 after 0.00 sec. (0.31 ticks)
Tried aggregator 2 times.
MIP Presolve eliminated 178 rows and 2745 columns.
MIP Presolve modified 5862 coefficients.
Aggregator did 713 substitutions.
Reduced MIP has 3624 rows, 7739 columns, and 28646 nonzeros.
Reduced MIP has 7739 binaries, 0 generals, 0 SOSs, and 0 indicators.
Presolve time = 0.07 sec. (68.57 ticks)
Probing time = 0.03 sec. (5.33 ticks)
Tried aggregator 1 time.
Detecting symmetries...
Reduced MIP has 3624 rows, 7739 columns, and 28646 nonzeros.
Reduced MIP has 7739 binaries, 0 generals, 0 SOSs, and 0 indicators.
Presolve time = 0.03 sec. (21.85 ticks)
Probing time = 0.02 sec. (5.11 ticks)
Clique table members: 18552.
MIP emphasis: balance optimality and feasibility.
MIP search method: dynamic search.
Parallel mode: opportunistic, using up to 40 threads.
Root relaxation solution time = 0.07 sec. (62.34 ticks)

        Nodes                                         Cuts/
   Node  Left     Objective  IInf  Best Integer    Best Bound    ItCnt     Gap

*     0+    0                            0.0000  -1.31000e+13              --- 
*     0+    0                      -4.29000e+12  -1.31000e+13           205.36%
*     0+    0                      -5.39000e+12  -1.31000e+13           143.04%
*     0+    0                      -5.50000e+12  -1.31000e+13           138.18%
*     0+    0                      -6.48000e+12  -1.31000e+13           102.16%
      0     0  -1.30900e+13    99  -6.48000e+12  -1.30900e+13     1546  102.01%
*     0+    0                      -1.08900e+13  -1.30900e+13            20.20%
*     0+    0                      -1.30900e+13  -1.30900e+13             0.00%
      0     0  -1.30900e+13   146  -1.30900e+13      Cuts: 97     2069    0.00%
*     0+    0                      -1.30900e+13  -1.30900e+13             0.00%
      0     0  -1.30900e+13   152  -1.30900e+13     Cuts: 110     2298    0.00%
*     0+    0                      -1.30900e+13  -1.30900e+13             0.00%
      0     2  -1.30900e+13   126  -1.30900e+13  -1.30900e+13     2298    0.00%
Elapsed time = 1.90 sec. (1038.35 ticks, tree = 0.02 MB, solutions = 9)
    277    93  -1.30900e+13     9  -1.30900e+13  -1.30900e+13    42210    0.00%
    798    83  -1.30900e+13    15  -1.30900e+13  -1.30900e+13    39129    0.00%
   1325   122        cutoff        -1.30900e+13  -1.30900e+13    75030    0.00%
   2060   126  -1.30900e+13    27  -1.30900e+13  -1.30900e+13   219938    0.00%
   2793   132        cutoff        -1.30900e+13  -1.30900e+13   236817    0.00%
   3653    51  -1.30900e+13   169  -1.30900e+13  -1.30900e+13   361220    0.00%
   4517    33  -1.30900e+13   233  -1.30900e+13  -1.30900e+13   412426    0.00%
   5080     8        cutoff        -1.30900e+13  -1.30900e+13   539186    0.00%
   5502    47  -1.30900e+13   224  -1.30900e+13  -1.30900e+13   404791    0.00%

GUB cover cuts applied:  5
Clique cuts applied:  20
Cover cuts applied:  633
Flow cuts applied:  3
Mixed integer rounding cuts applied:  11
Zero-half cuts applied:  8
Lift and project cuts applied:  10
Gomory fractional cuts applied:  14

Root node processing (before b&c):
  Real time             =    1.14 sec. (1036.59 ticks)
Parallel b&c, 40 threads:
  Real time             =    5.47 sec. (2906.07 ticks)
  Sync time (average)   =    2.09 sec.
  Wait time (average)   =    0.00 sec.
                          ------------
Total (root+branch&cut) =    6.61 sec. (3942.66 ticks)

Solution pool: 12 solutions saved.

MIP - Integer optimal solution:  Objective = -1.3089999489e+13
Solution time =    6.74 sec.  Iterations = 554179  Nodes = 5917
Deterministic time = 3942.69 ticks  (584.67 ticks/sec)

CPLEX> Solution 'p13' written to file 'ee.sol'.
CPLEX> 